certificates/rado_a5_c234_N46.cnf
c Rad2 upper bound instance: x1 + 5*x2 - x3 = 234, interval [1,46]
p cnf 46 396
1 5 46 0
-1 -5 -46 0
2 6 46 0
-2 -6 -46 0
3 7 46 0
-3 -7 -46 0
4 8 46 0
-4 -8 -46 0
5 9 46 0
-5 -9 -46 0
1 10 45 0
-1 -10 -45 0
6 10 46 0
-6 -10 -46 0
2 11 45 0
-2 -11 -45 0
7 11 46 0
-7 -11 -46 0
3 12 45 0
-3 -12 -45 0
8 12 46 0
-8 -12 -46 0
4 13 45 0
-4 -13 -45 0
9 13 46 0
-9 -13 -46 0
5 14 45 0
-5 -14 -45 0
10 14 46 0
-10 -14 -46 0
1 15 44 0
-1 -15 -44 0
6 15 45 0
-6 -15 -45 0
11 15 46 0
-11 -15 -46 0
2 16 44 0
-2 -16 -44 0
7 16 45 0
-7 -16 -45 0
12 16 46 0
-12 -16 -46 0
3 17 44 0
-3 -17 -44 0
8 17 45 0
-8 -17 -45 0
13 17 46 0
-13 -17 -46 0
4 18 44 0
-4 -18 -44 0
9 18 45 0
-9 -18 -45 0
14 18 46 0
-14 -18 -46 0
5 19 44 0
-5 -19 -44 0
10 19 45 0
-10 -19 -45 0
15 19 46 0
-15 -19 -46 0
1 20 43 0
-1 -20 -43 0
6 20 44 0
-6 -20 -44 0
11 20 45 0
-11 -20 -45 0
16 20 46 0
-16 -20 -46 0
2 21 43 0
-2 -21 -43 0
7 21 44 0
-7 -21 -44 0
12 21 45 0
-12 -21 -45 0
17 21 46 0
-17 -21 -46 0
3 22 43 0
-3 -22 -43 0
8 22 44 0
-8 -22 -44 0
13 22 45 0
-13 -22 -45 0
18 22 46 0
-18 -22 -46 0
4 23 43 0
-4 -23 -43 0
9 23 44 0
-9 -23 -44 0
14 23 45 0
-14 -23 -45 0
19 23 46 0
-19 -23 -46 0
5 24 43 0
-5 -24 -43 0
10 24 44 0
-10 -24 -44 0
15 24 45 0
-15 -24 -45 0
20 24 46 0
-20 -24 -46 0
1 25 42 0
-1 -25 -42 0
6 25 43 0
-6 -25 -43 0
11 25 44 0
-11 -25 -44 0
16 25 45 0
-16 -25 -45 0
21 25 46 0
-21 -25 -46 0
2 26 42 0
-2 -26 -42 0
7 26 43 0
-7 -26 -43 0
12 26 44 0
-12 -26 -44 0
17 26 45 0
-17 -26 -45 0
22 26 46 0
-22 -26 -46 0
3 27 42 0
-3 -27 -42 0
8 27 43 0
-8 -27 -43 0
13 27 44 0
-13 -27 -44 0
18 27 45 0
-18 -27 -45 0
23 27 46 0
-23 -27 -46 0
4 28 42 0
-4 -28 -42 0
9 28 43 0
-9 -28 -43 0
14 28 44 0
-14 -28 -44 0
19 28 45 0
-19 -28 -45 0
24 28 46 0
-24 -28 -46 0
5 29 42 0
-5 -29 -42 0
10 29 43 0
-10 -29 -43 0
15 29 44 0
-15 -29 -44 0
20 29 45 0
-20 -29 -45 0
25 29 46 0
-25 -29 -46 0
1 30 41 0
-1 -30 -41 0
6 30 42 0
-6 -30 -42 0
11 30 43 0
-11 -30 -43 0
16 30 44 0
-16 -30 -44 0
21 30 45 0
-21 -30 -45 0
26 30 46 0
-26 -30 -46 0
2 31 41 0
-2 -31 -41 0
7 31 42 0
-7 -31 -42 0
12 31 43 0
-12 -31 -43 0
17 31 44 0
-17 -31 -44 0
22 31 45 0
-22 -31 -45 0
27 31 46 0
-27 -31 -46 0
3 32 41 0
-3 -32 -41 0
8 32 42 0
-8 -32 -42 0
13 32 43 0
-13 -32 -43 0
18 32 44 0
-18 -32 -44 0
23 32 45 0
-23 -32 -45 0
28 32 46 0
-28 -32 -46 0
4 33 41 0
-4 -33 -41 0
9 33 42 0
-9 -33 -42 0
14 33 43 0
-14 -33 -43 0
19 33 44 0
-19 -33 -44 0
24 33 45 0
-24 -33 -45 0
29 33 46 0
-29 -33 -46 0
5 34 41 0
-5 -34 -41 0
10 34 42 0
-10 -34 -42 0
15 34 43 0
-15 -34 -43 0
20 34 44 0
-20 -34 -44 0
25 34 45 0
-25 -34 -45 0
30 34 46 0
-30 -34 -46 0
1 35 40 0
-1 -35 -40 0
6 35 41 0
-6 -35 -41 0
11 35 42 0
-11 -35 -42 0
16 35 43 0
-16 -35 -43 0
21 35 44 0
-21 -35 -44 0
26 35 45 0
-26 -35 -45 0
31 35 46 0
-31 -35 -46 0
2 36 40 0
-2 -36 -40 0
7 36 41 0
-7 -36 -41 0
12 36 42 0
-12 -36 -42 0
17 36 43 0
-17 -36 -43 0
22 36 44 0
-22 -36 -44 0
27 36 45 0
-27 -36 -45 0
32 36 46 0
-32 -36 -46 0
3 37 40 0
-3 -37 -40 0
8 37 41 0
-8 -37 -41 0
13 37 42 0
-13 -37 -42 0
18 37 43 0
-18 -37 -43 0
23 37 44 0
-23 -37 -44 0
28 37 45 0
-28 -37 -45 0
33 37 46 0
-33 -37 -46 0
4 38 40 0
-4 -38 -40 0
9 38 41 0
-9 -38 -41 0
14 38 42 0
-14 -38 -42 0
19 38 43 0
-19 -38 -43 0
24 38 44 0
-24 -38 -44 0
29 38 45 0
-29 -38 -45 0
34 38 46 0
-34 -38 -46 0
5 39 40 0
-5 -39 -40 0
10 39 41 0
-10 -39 -41 0
15 39 42 0
-15 -39 -42 0
20 39 43 0
-20 -39 -43 0
25 39 44 0
-25 -39 -44 0
30 39 45 0
-30 -39 -45 0
35 39 46 0
-35 -39 -46 0
1 39 40 0
-1 -39 -40 0
6 40 0
-6 -40 0
11 40 41 0
-11 -40 -41 0
16 40 42 0
-16 -40 -42 0
21 40 43 0
-21 -40 -43 0
26 40 44 0
-26 -40 -44 0
31 40 45 0
-31 -40 -45 0
36 40 46 0
-36 -40 -46 0
2 39 41 0
-2 -39 -41 0
7 40 41 0
-7 -40 -41 0
12 41 0
-12 -41 0
17 41 42 0
-17 -41 -42 0
22 41 43 0
-22 -41 -43 0
27 41 44 0
-27 -41 -44 0
32 41 45 0
-32 -41 -45 0
37 41 46 0
-37 -41 -46 0
3 39 42 0
-3 -39 -42 0
8 40 42 0
-8 -40 -42 0
13 41 42 0
-13 -41 -42 0
18 42 0
-18 -42 0
23 42 43 0
-23 -42 -43 0
28 42 44 0
-28 -42 -44 0
33 42 45 0
-33 -42 -45 0
38 42 46 0
-38 -42 -46 0
4 39 43 0
-4 -39 -43 0
9 40 43 0
-9 -40 -43 0
14 41 43 0
-14 -41 -43 0
19 42 43 0
-19 -42 -43 0
24 43 0
-24 -43 0
29 43 44 0
-29 -43 -44 0
34 43 45 0
-34 -43 -45 0
39 43 46 0
-39 -43 -46 0
5 39 44 0
-5 -39 -44 0
10 40 44 0
-10 -40 -44 0
15 41 44 0
-15 -41 -44 0
20 42 44 0
-20 -42 -44 0
25 43 44 0
-25 -43 -44 0
30 44 0
-30 -44 0
35 44 45 0
-35 -44 -45 0
40 44 46 0
-40 -44 -46 0
1 38 45 0
-1 -38 -45 0
6 39 45 0
-6 -39 -45 0
11 40 45 0
-11 -40 -45 0
16 41 45 0
-16 -41 -45 0
21 42 45 0
-21 -42 -45 0
26 43 45 0
-26 -43 -45 0
31 44 45 0
-31 -44 -45 0
36 45 0
-36 -45 0
41 45 46 0
-41 -45 -46 0
2 38 46 0
-2 -38 -46 0
7 39 46 0
-7 -39 -46 0
12 40 46 0
-12 -40 -46 0
17 41 46 0
-17 -41 -46 0
22 42 46 0
-22 -42 -46 0
27 43 46 0
-27 -43 -46 0
32 44 46 0
-32 -44 -46 0
37 45 46 0
-37 -45 -46 0
42 46 0
-42 -46 0
