certificates/rado_a5_c234_N46.drat
-46 0
42 0
-18 0
14 0
22 0
-38 0
34 0
2 0
-10 0
-26 0
6 0
30 0
0
